120
10000
1245
1908
2401
2267
1978
450
2073
428
2006
1020
2162
1563
528
662
1361
1392
1384
2044
58
1072
2481
50
1447
1925
1705
1836
456
563
1827
139
64
1832
696
1440
1832
425
227
1729
1472
1864
137
1068
1010
1
2255
1032
920
1379
500
905
1363
1507
1718
1248
1282
385
1187
1783
1963
1134
101
2059
160
2170
1309
2390
1041
1378
1528
354
791
1334
2499
728
566
2065
1380
2020
1454
1479
52
1126
2374
62
1166
920
439
1554
665
2269
2117
543
1272
1169
1273
1915
1782
634
885
2318
310
993
1956
839
806
2240
1284
931
1645
1865
236
1297
2302
925
894
475
1782
2214
298
578
